c Reduced graph for GEOM50 generated by Cyril Grelier
p edge 24 59
e 1 2
e 1 7
e 1 9
e 1 15
e 1 16
e 1 18
e 2 9
e 2 15
e 2 16
e 2 18
e 3 4
e 3 5
e 3 11
e 3 19
e 3 22
e 4 19
e 5 11
e 5 19
e 5 20
e 5 22
e 6 8
e 6 12
e 6 21
e 6 23
e 6 24
e 7 10
e 7 15
e 7 16
e 7 18
e 8 12
e 8 21
e 8 23
e 8 24
e 9 15
e 10 18
e 10 21
e 11 17
e 11 19
e 11 20
e 11 22
e 12 21
e 12 23
e 12 24
e 13 14
e 13 17
e 13 20
e 14 17
e 14 20
e 15 16
e 15 18
e 16 18
e 17 20
e 17 22
e 19 20
e 19 22
e 20 22
e 21 23
e 21 24
e 23 24
